50, 11090
897, 678
867, 785
891, 521
245, 512
26, 394
377, 997
114, 290
706, 149
263, 262
129, 261
284, 328
404, 268
736, 108
462, 326
302, 312
678, 570
46, 202
210, 71
688, 203
753, 543
102, 389
67, 734
506, 804
657, 415
17, 100
437, 728
275, 756
86, 397
172, 659
286, 300
468, 915
113, 834
621, 792
879, 954
684, 233
68, 546
649, 732
634, 802
9, 391
385, 139
653, 627
951, 105
929, 706
570, 7
589, 455
959, 480
211, 120
510, 481
62, 501
775, 370
